unsat
(error "line 1697 column 17: model is not available")
(error "line 1698 column 17: model is not available")
(error "line 1699 column 18: model is not available")
(error "line 1700 column 19: model is not available")
(error "line 1701 column 19: model is not available")
(error "line 1702 column 19: model is not available")
(error "line 1703 column 19: model is not available")
(error "line 1704 column 19: model is not available")
(error "line 1705 column 19: model is not available")
(error "line 1706 column 19: model is not available")
(error "line 1707 column 19: model is not available")
(error "line 1708 column 19: model is not available")
(error "line 1709 column 19: model is not available")
(error "line 1710 column 18: model is not available")
(error "line 1711 column 19: model is not available")
(error "line 1712 column 19: model is not available")
(error "line 1713 column 19: model is not available")
(error "line 1714 column 19: model is not available")
(error "line 1715 column 19: model is not available")
(error "line 1716 column 19: model is not available")
(error "line 1717 column 19: model is not available")
(error "line 1718 column 19: model is not available")
(error "line 1719 column 19: model is not available")
(error "line 1720 column 19: model is not available")
(error "line 1721 column 18: model is not available")
(error "line 1722 column 19: model is not available")
(error "line 1723 column 19: model is not available")
(error "line 1724 column 19: model is not available")
(error "line 1725 column 19: model is not available")
(error "line 1726 column 19: model is not available")
(error "line 1727 column 19: model is not available")
(error "line 1728 column 19: model is not available")
(error "line 1729 column 19: model is not available")
(error "line 1730 column 19: model is not available")
(error "line 1731 column 19: model is not available")
(error "line 1732 column 18: model is not available")
(error "line 1733 column 19: model is not available")
(error "line 1734 column 19: model is not available")
(error "line 1735 column 19: model is not available")
(error "line 1736 column 19: model is not available")
(error "line 1737 column 19: model is not available")
(error "line 1738 column 18: model is not available")
(error "line 1739 column 18: model is not available")
(error "line 1740 column 18: model is not available")
(error "line 1741 column 18: model is not available")
(error "line 1742 column 18: model is not available")
(error "line 1743 column 18: model is not available")
(error "line 1744 column 17: model is not available")
(error "line 1745 column 18: model is not available")
(error "line 1746 column 18: model is not available")
(error "line 1747 column 18: model is not available")
(error "line 1748 column 18: model is not available")
(error "line 1749 column 18: model is not available")
(error "line 1750 column 18: model is not available")
(error "line 1751 column 18: model is not available")
(error "line 1752 column 18: model is not available")
(error "line 1753 column 18: model is not available")
(error "line 1754 column 18: model is not available")
(error "line 1755 column 17: model is not available")
(error "line 1756 column 18: model is not available")
(error "line 1757 column 18: model is not available")
(error "line 1758 column 18: model is not available")
(error "line 1759 column 18: model is not available")
(error "line 1760 column 18: model is not available")
(error "line 1761 column 18: model is not available")
(error "line 1762 column 18: model is not available")
(error "line 1763 column 18: model is not available")
(error "line 1764 column 18: model is not available")
(error "line 1765 column 18: model is not available")
(error "line 1766 column 17: model is not available")
(error "line 1767 column 18: model is not available")
(error "line 1768 column 18: model is not available")
(error "line 1769 column 18: model is not available")
(error "line 1770 column 18: model is not available")
(error "line 1771 column 18: model is not available")
(error "line 1772 column 18: model is not available")
(error "line 1773 column 18: model is not available")
(error "line 1774 column 18: model is not available")
(error "line 1775 column 18: model is not available")
(error "line 1776 column 18: model is not available")
(error "line 1777 column 17: model is not available")
(error "line 1778 column 18: model is not available")
(error "line 1779 column 18: model is not available")
(error "line 1780 column 18: model is not available")
(error "line 1781 column 18: model is not available")
(error "line 1782 column 18: model is not available")
(error "line 1783 column 18: model is not available")
(error "line 1784 column 18: model is not available")
(error "line 1785 column 18: model is not available")
(error "line 1786 column 18: model is not available")
(error "line 1787 column 18: model is not available")
(error "line 1788 column 17: model is not available")
(error "line 1789 column 18: model is not available")
(error "line 1790 column 18: model is not available")
(error "line 1791 column 18: model is not available")
(error "line 1792 column 18: model is not available")
(error "line 1793 column 18: model is not available")
(error "line 1794 column 18: model is not available")
(error "line 1795 column 18: model is not available")
(error "line 1796 column 18: model is not available")
(error "line 1797 column 18: model is not available")
(error "line 1798 column 18: model is not available")
(error "line 1799 column 17: model is not available")
(error "line 1800 column 18: model is not available")
(error "line 1801 column 18: model is not available")
(error "line 1802 column 18: model is not available")
(error "line 1803 column 18: model is not available")
(error "line 1804 column 18: model is not available")
(error "line 1805 column 18: model is not available")
(error "line 1806 column 18: model is not available")
(error "line 1807 column 18: model is not available")
(error "line 1808 column 18: model is not available")
(error "line 1809 column 18: model is not available")
(error "line 1810 column 17: model is not available")
(error "line 1811 column 18: model is not available")
(error "line 1812 column 18: model is not available")
(error "line 1813 column 18: model is not available")
(error "line 1814 column 18: model is not available")
(error "line 1815 column 18: model is not available")
(error "line 1816 column 18: model is not available")
(error "line 1817 column 18: model is not available")
(error "line 1818 column 18: model is not available")
(error "line 1819 column 18: model is not available")
(error "line 1820 column 18: model is not available")
(error "line 1821 column 17: model is not available")
(error "line 1822 column 18: model is not available")
(error "line 1823 column 18: model is not available")
(error "line 1824 column 18: model is not available")
(error "line 1825 column 18: model is not available")
(error "line 1826 column 18: model is not available")
(error "line 1827 column 18: model is not available")
(error "line 1828 column 18: model is not available")
(error "line 1829 column 18: model is not available")
(error "line 1830 column 18: model is not available")
(error "line 1831 column 18: model is not available")
(error "line 1832 column 38: model is not available")
(error "line 1833 column 45: model is not available")
(error "line 1834 column 38: model is not available")
(error "line 1835 column 45: model is not available")
(error "line 1836 column 46: model is not available")
(error "line 1837 column 53: model is not available")
(error "line 1838 column 40: model is not available")
(error "line 1839 column 47: model is not available")
(error "line 1840 column 38: model is not available")
(error "line 1841 column 45: model is not available")
(error "line 1842 column 38: model is not available")
(error "line 1843 column 45: model is not available")
(error "line 1844 column 41: model is not available")
(error "line 1845 column 48: model is not available")
(error "line 1846 column 42: model is not available")
(error "line 1847 column 49: model is not available")
(error "line 1848 column 41: model is not available")
(error "line 1849 column 48: model is not available")
(error "line 1850 column 41: model is not available")
(error "line 1851 column 48: model is not available")
(error "line 1852 column 41: model is not available")
(error "line 1853 column 41: model is not available")
(error "line 1854 column 41: model is not available")
(error "line 1855 column 41: model is not available")
(error "line 1856 column 48: model is not available")
(error "line 1857 column 41: model is not available")
(error "line 1858 column 48: model is not available")
(error "line 1859 column 41: model is not available")
(error "line 1860 column 37: model is not available")
(error "line 1861 column 44: model is not available")
(error "line 1862 column 42: model is not available")
(error "line 1863 column 42: model is not available")
(error "line 1864 column 42: model is not available")
(error "line 1865 column 42: model is not available")
(error "line 1866 column 38: model is not available")
(error "line 1867 column 38: model is not available")
(error "line 1868 column 38: model is not available")
(error "line 1869 column 38: model is not available")
(error "line 1870 column 38: model is not available")
(error "line 1871 column 38: model is not available")
(error "line 1872 column 38: model is not available")
(error "line 1873 column 41: model is not available")
(error "line 1874 column 48: model is not available")
(error "line 1875 column 41: model is not available")
(error "line 1876 column 48: model is not available")
(error "line 1877 column 41: model is not available")
(error "line 1878 column 48: model is not available")
(error "line 1879 column 41: model is not available")
(error "line 1880 column 48: model is not available")
(error "line 1881 column 41: model is not available")
(error "line 1882 column 48: model is not available")
(error "line 1883 column 41: model is not available")
(error "line 1884 column 48: model is not available")
(error "line 1885 column 41: model is not available")
(error "line 1886 column 48: model is not available")
(error "line 1887 column 44: model is not available")
(error "line 1888 column 53: model is not available")
(error "line 1889 column 53: model is not available")
(error "line 1890 column 53: model is not available")
(error "line 1891 column 22: model is not available")
(error "line 1892 column 20: model is not available")
(error "line 1893 column 22: model is not available")
(error "line 1894 column 22: model is not available")
(error "line 1895 column 29: model is not available")
(error "line 1896 column 38: model is not available")
(error "line 1897 column 38: model is not available")
(error "line 1898 column 38: model is not available")
(error "line 1899 column 36: model is not available")
(error "line 1900 column 36: model is not available")
(error "line 1901 column 36: model is not available")
(error "line 1902 column 36: model is not available")
(error "line 1903 column 31: model is not available")
(error "line 1904 column 31: model is not available")
(error "line 1905 column 31: model is not available")
(error "line 1906 column 31: model is not available")
(error "line 1907 column 31: model is not available")
(error "line 1908 column 31: model is not available")
(error "line 1909 column 30: model is not available")
(error "line 1910 column 32: model is not available")
(error "line 1911 column 39: model is not available")
(error "line 1912 column 32: model is not available")
(error "line 1913 column 39: model is not available")
(error "line 1914 column 30: model is not available")
(error "line 1915 column 32: model is not available")
(error "line 1916 column 39: model is not available")
(error "line 1917 column 32: model is not available")
(error "line 1918 column 39: model is not available")
(error "line 1919 column 32: model is not available")
(error "line 1920 column 39: model is not available")
(error "line 1921 column 31: model is not available")
(error "line 1922 column 31: model is not available")
(error "line 1923 column 53: model is not available")
(error "line 1924 column 52: model is not available")
(error "line 1925 column 53: model is not available")
(error "line 1926 column 51: model is not available")
(error "line 1927 column 53: model is not available")
(error "line 1928 column 52: model is not available")
(error "line 1929 column 53: model is not available")
(error "line 1930 column 53: model is not available")
(error "line 1931 column 52: model is not available")
(error "line 1932 column 52: model is not available")
(error "line 1933 column 52: model is not available")
(error "line 1934 column 51: model is not available")
(error "line 1935 column 51: model is not available")
(error "line 1936 column 52: model is not available")
(error "line 1937 column 51: model is not available")
(error "line 1938 column 52: model is not available")
(error "line 1939 column 52: model is not available")
(error "line 1940 column 51: model is not available")
(error "line 1941 column 51: model is not available")
(error "line 1942 column 52: model is not available")
(error "line 1943 column 51: model is not available")
(error "line 1944 column 50: model is not available")
(error "line 1945 column 50: model is not available")
(error "line 1946 column 50: model is not available")
(error "line 1947 column 52: model is not available")
(error "line 1948 column 52: model is not available")
(error "line 1949 column 51: model is not available")
(error "line 1950 column 50: model is not available")
(error "line 1951 column 50: model is not available")
(error "line 1952 column 50: model is not available")
(error "line 1953 column 52: model is not available")
(error "line 1954 column 52: model is not available")
(error "line 1955 column 51: model is not available")
(error "line 1956 column 50: model is not available")
(error "line 1957 column 50: model is not available")
(error "line 1958 column 50: model is not available")
(error "line 1959 column 56: model is not available")
(error "line 1960 column 56: model is not available")
(error "line 1961 column 56: model is not available")
(error "line 1962 column 56: model is not available")
(error "line 1963 column 55: model is not available")
(error "line 1964 column 55: model is not available")
(error "line 1965 column 55: model is not available")
(error "line 1966 column 55: model is not available")
(error "line 1967 column 55: model is not available")
(error "line 1968 column 55: model is not available")
(error "line 1969 column 55: model is not available")
(error "line 1970 column 18: model is not available")
(error "line 1971 column 25: model is not available")
(error "line 1972 column 18: model is not available")
(error "line 1973 column 25: model is not available")
(error "line 1974 column 18: model is not available")
(error "line 1975 column 25: model is not available")
(error "line 1976 column 18: model is not available")
(error "line 1977 column 25: model is not available")
(error "line 1978 column 18: model is not available")
(error "line 1979 column 25: model is not available")
(error "line 1980 column 18: model is not available")
(error "line 1981 column 25: model is not available")
(error "line 1982 column 36: model is not available")
(error "line 1983 column 46: model is not available")
(error "line 1984 column 46: model is not available")
(error "line 1985 column 46: model is not available")
(error "line 1986 column 46: model is not available")
(error "line 1987 column 46: model is not available")
(error "line 1988 column 46: model is not available")
(error "line 1989 column 46: model is not available")
(error "line 1990 column 46: model is not available")
(error "line 1991 column 54: model is not available")
(error "line 1992 column 54: model is not available")
(error "line 1993 column 54: model is not available")
(error "line 1994 column 54: model is not available")
(error "line 1995 column 54: model is not available")
(error "line 1996 column 54: model is not available")
(error "line 1997 column 54: model is not available")
(error "line 1998 column 54: model is not available")
(error "line 1999 column 54: model is not available")
(error "line 2000 column 40: model is not available")
(error "line 2001 column 40: model is not available")
(error "line 2002 column 40: model is not available")
(error "line 2003 column 40: model is not available")
(error "line 2004 column 40: model is not available")
(error "line 2005 column 40: model is not available")
(error "line 2006 column 41: model is not available")
(error "line 2007 column 41: model is not available")
(error "line 2008 column 41: model is not available")
(error "line 2009 column 41: model is not available")
(error "line 2010 column 41: model is not available")
(error "line 2011 column 41: model is not available")
(error "line 2012 column 50: model is not available")
(error "line 2013 column 50: model is not available")
(error "line 2014 column 50: model is not available")
(error "line 2015 column 50: model is not available")
(error "line 2016 column 50: model is not available")
(error "line 2017 column 50: model is not available")
(error "line 2018 column 43: model is not available")
(error "line 2019 column 43: model is not available")
(error "line 2020 column 43: model is not available")
(error "line 2021 column 43: model is not available")
(error "line 2022 column 43: model is not available")
(error "line 2023 column 43: model is not available")
(error "line 2024 column 26: model is not available")
(error "line 2025 column 27: model is not available")
(error "line 2026 column 30: model is not available")
(error "line 2027 column 30: model is not available")
(error "line 2028 column 30: model is not available")
(error "line 2029 column 36: model is not available")
(error "line 2030 column 36: model is not available")
(error "line 2031 column 36: model is not available")
(error "line 2032 column 36: model is not available")
(error "line 2033 column 30: model is not available")
(error "line 2034 column 36: model is not available")
(error "line 2035 column 36: model is not available")
(error "line 2036 column 36: model is not available")
(error "line 2037 column 36: model is not available")
(error "line 2038 column 36: model is not available")
(error "line 2039 column 31: model is not available")
(error "line 2040 column 31: model is not available")
(error "line 2041 column 31: model is not available")
(error "line 2042 column 31: model is not available")
(error "line 2043 column 30: model is not available")
(error "line 2044 column 30: model is not available")
(error "line 2045 column 18: model is not available")
(error "line 2046 column 25: model is not available")
(error "line 2047 column 18: model is not available")
(error "line 2048 column 25: model is not available")
(error "line 2049 column 18: model is not available")
(error "line 2050 column 25: model is not available")
(error "line 2051 column 18: model is not available")
(error "line 2052 column 25: model is not available")
(error "line 2053 column 18: model is not available")
(error "line 2054 column 25: model is not available")
(error "line 2055 column 18: model is not available")
(error "line 2056 column 25: model is not available")
(error "line 2057 column 18: model is not available")
(error "line 2058 column 25: model is not available")
(error "line 2059 column 18: model is not available")
(error "line 2060 column 25: model is not available")
(error "line 2062 column 10: model is not available")
(:added-eqs                      253
 :arith-bound-propagations-cheap 27
 :arith-bound-propagations-lp    58
 :arith-lower                    53
 :arith-make-feasible            19
 :arith-max-columns              121
 :arith-max-rows                 84
 :arith-propagations             27
 :arith-upper                    46
 :array-ax1                      2
 :binary-propagations            1407
 :bv-bit2core                    1725
 :bv-diseqs                      3
 :bv-dynamic-diseqs              4
 :bv->core-eq                    64
 :conflicts                      15
 :decisions                      79
 :del-clause                     243
 :eliminated-applications        19
 :eliminated-vars                9
 :max-memory                     4.30
 :memory                         3.21
 :minimized-lits                 33
 :mk-bool-var                    1126
 :mk-clause                      910
 :num-allocs                     1101135
 :num-checks                     1
 :propagations                   2462
 :rlimit-count                   50522
 :time                           0.01
 :total-time                     0.02)

real	0m0.022s
user	0m0.022s
sys	0m0.000s
State: RE Run_time: 0.024454832077026367